examples/inputs/input31.dzn
n = 71;
l = 500;
s = 500;
r = 500;
f = 100;
forbidden = [| 45, 63
	| 22, 33
	| 27, 21
	| 38, 7
	| 52, 41
	| 38, 13
	| 22, 15
	| 24, 4
	| 70, 30
	| 60, 55
	| 27, 2
	| 47, 38
	| 60, 10
	| 28, 9
	| 68, 45
	| 41, 30
	| 24, 21
	| 58, 54
	| 47, 59
	| 52, 52
	| 49, 61
	| 58, 37
	| 10, 45
	| 17, 6
	| 11, 57
	| 69, 47
	| 18, 29
	| 27, 18
	| 3, 24
	| 66, 44
	| 43, 36
	| 27, 26
	| 52, 51
	| 71, 11
	| 6, 36
	| 17, 14
	| 68, 37
	| 10, 18
	| 51, 28
	| 33, 62
	| 42, 50
	| 51, 2
	| 71, 37
	| 47, 70
	| 58, 64
	| 49, 35
	| 32, 51
	| 47, 17
	| 9, 17
	| 39, 31
	| 6, 7
	| 12, 64
	| 34, 46
	| 1, 56
	| 62, 51
	| 9, 47
	| 43, 51
	| 12, 13
	| 38, 26
	| 38, 14
	| 9, 68
	| 16, 10
	| 58, 31
	| 11, 34
	| 71, 53
	| 56, 68
	| 46, 38
	| 18, 39
	| 26, 45
	| 19, 4
	| 45, 44
	| 51, 20
	| 60, 38
	| 67, 52
	| 62, 32
	| 8, 30
	| 1, 31
	| 61, 58
	| 34, 42
	| 26, 14
	| 17, 7
	| 69, 48
	| 12, 10
	| 27, 62
	| 51, 62
	| 9, 6
	| 23, 38
	| 65, 28
	| 71, 54
	| 48, 16
	| 32, 59
	| 4, 32
	| 5, 57
	| 21, 53
	| 53, 42
	| 22, 27
	| 8, 37
	| 63, 9
	| 11, 10
	| 53, 54
	|];