examples/inputs/input31.lp
#const n = 71.
#const l = 500.
#const s = 500.
#const r = 500.
#const f = 100.
val(45, 63, xxx).
val(22, 33, xxx).
val(27, 21, xxx).
val(38, 7, xxx).
val(52, 41, xxx).
val(38, 13, xxx).
val(22, 15, xxx).
val(24, 4, xxx).
val(70, 30, xxx).
val(60, 55, xxx).
val(27, 2, xxx).
val(47, 38, xxx).
val(60, 10, xxx).
val(28, 9, xxx).
val(68, 45, xxx).
val(41, 30, xxx).
val(24, 21, xxx).
val(58, 54, xxx).
val(47, 59, xxx).
val(52, 52, xxx).
val(49, 61, xxx).
val(58, 37, xxx).
val(10, 45, xxx).
val(17, 6, xxx).
val(11, 57, xxx).
val(69, 47, xxx).
val(18, 29, xxx).
val(27, 18, xxx).
val(3, 24, xxx).
val(66, 44, xxx).
val(43, 36, xxx).
val(27, 26, xxx).
val(52, 51, xxx).
val(71, 11, xxx).
val(6, 36, xxx).
val(17, 14, xxx).
val(68, 37, xxx).
val(10, 18, xxx).
val(51, 28, xxx).
val(33, 62, xxx).
val(42, 50, xxx).
val(51, 2, xxx).
val(71, 37, xxx).
val(47, 70, xxx).
val(58, 64, xxx).
val(49, 35, xxx).
val(32, 51, xxx).
val(47, 17, xxx).
val(9, 17, xxx).
val(39, 31, xxx).
val(6, 7, xxx).
val(12, 64, xxx).
val(34, 46, xxx).
val(1, 56, xxx).
val(62, 51, xxx).
val(9, 47, xxx).
val(43, 51, xxx).
val(12, 13, xxx).
val(38, 26, xxx).
val(38, 14, xxx).
val(9, 68, xxx).
val(16, 10, xxx).
val(58, 31, xxx).
val(11, 34, xxx).
val(71, 53, xxx).
val(56, 68, xxx).
val(46, 38, xxx).
val(18, 39, xxx).
val(26, 45, xxx).
val(19, 4, xxx).
val(45, 44, xxx).
val(51, 20, xxx).
val(60, 38, xxx).
val(67, 52, xxx).
val(62, 32, xxx).
val(8, 30, xxx).
val(1, 31, xxx).
val(61, 58, xxx).
val(34, 42, xxx).
val(26, 14, xxx).
val(17, 7, xxx).
val(69, 48, xxx).
val(12, 10, xxx).
val(27, 62, xxx).
val(51, 62, xxx).
val(9, 6, xxx).
val(23, 38, xxx).
val(65, 28, xxx).
val(71, 54, xxx).
val(48, 16, xxx).
val(32, 59, xxx).
val(4, 32, xxx).
val(5, 57, xxx).
val(21, 53, xxx).
val(53, 42, xxx).
val(22, 27, xxx).
val(8, 37, xxx).
val(63, 9, xxx).
val(11, 10, xxx).
val(53, 54, xxx).